PARAMETER_FILE = even/even_uncomplete_graph_new/nei/par/random17.par
PROBLEM_FILE = even/even_uncomplete_graph_new/nei/mat/random17.tsp
Successes/Runs = 1/0
Cost.min = 399, Cost.avg = 399.00, Cost.max = 399
Gap.min = 0.0000%, Gap.avg = 0.0000%, Gap.max = 0.0000%
Trials.min = 0, Trials.avg = 0.0, Trials.max = 0
Time.min = 0.01 sec., Time.avg = 0.01 sec., Time.max = 0.01 sec.
Time.total = 0.01 sec.
